; Property from "Case-Analysis for Rippling and Inductive Proof",
; Moa Johansson, Lucas Dixon and Alan Bundy, ITP 2010
(declare-datatypes ()
  ((Nat :source Definitions.Nat (Z :source Definitions.Z)
     (S :source Definitions.S (proj1-S Nat)))))
(define-fun-rec
  max :source Definitions.max
    ((x Nat) (y Nat)) Nat
    (match x
      (case Z y)
      (case (S z)
        (match y
          (case Z x)
          (case (S x2) (S (max z x2)))))))
(prove
  :source Properties.prop_22
  (forall ((a Nat) (b Nat) (c Nat))
    (= (max (max a b) c) (max a (max b c)))))
